language ESSENCE' 1.0
letting AssignmentMatrix be [[0, 0, 0, 1, 1, 0, 1, 1, 0, 0, 1, 0, 1, 1, 0, 1, 0, 0, 0, 1, 1, 0, 1, 0, 0, 1], 
[0, 0, 0, 1, 1, 0, 0, 1, 0, 0, 0, 0, 0, 0, 1, 1, 0, 0, 0, 0, 0, 0, 1, 0, 1, 1], 
[0, 0, 0, 0, 0, 0, 0, 0, 0, 0, 0, 0, 0, 0, 0, 0, 0, 0, 0, 0, 0, 0, 0, 0, 0, 0], 
[0, 0, 0, 0, 0, 0, 0, 0, 1, 0, 0, 0, 0, 0, 0, 0, 1, 0, 0, 0, 0, 1, 0, 1, 0, 0], 
[0, 1, 0, 0, 0, 0, 0, 0, 0, 0, 0, 1, 0, 0, 0, 0, 0, 0, 0, 0, 0, 0, 0, 0, 0, 0]]
letting CPU be [64, 4, 63, 4, 4, 6, 2, 4, 4, 63, 2, 4, 2, 2, 2, 4, 4, 9, 63, 2, 2, 4, 4, 4, 2, 4]
letting Memory be [488038, 7500, 488004, 15000, 15000, 488002, 3750, 15000, 7500, 488007, 3750, 7500, 3750, 3750, 3750, 15000, 7500, 488002, 488008, 3750, 3750, 7500, 15000, 7500, 3750, 15000]
letting Price be [0, 210, 0, 350, 350, 0, 116, 350, 210, 0, 116, 210, 116, 116, 126, 350, 210, 0, 0, 116, 116, 210, 350, 210, 126, 350]
letting Storage be [12038, 2000, 12004, 4000, 4000, 12002, 2000, 4000, 2000, 12007, 2000, 2000, 2000, 2000, 2000, 4000, 2000, 12002, 12008, 2000, 2000, 2000, 4000, 2000, 2000, 4000]
letting VMType be [1, 341, 1, 316, 316, 1, 433, 316, 341, 1, 433, 341, 433, 433, 477, 316, 341, 1, 1, 433, 433, 341, 316, 341, 477, 316]
